(set-logic HORN)
(set-info :source |
    Benchmark: C_VC
    Output by Princess (http://www.philipp.ruemmer.org/princess.shtml)
|)
(set-info :status sat)
;===============================================================================
; Encoding of Heap sorts and operations
;-------------------------------------------------------------------------------
(define-sort Addr() Int)
(declare-datatypes ((AddrRange 0))
                   (((AddrRange (AddrRangeStart Addr) (AddrRangeSize Int)))))

(declare-datatypes ((HeapObject 0) (node 0))
                   (((O_Int (getInt Int)) (O_UInt (getUInt Int)) (O_Addr (getAddr Addr)) (O_node (getnode node)) (defObj))
                   ((node (data Int) (next Addr) (prev Addr)))))
(declare-datatypes ((BatchAllocResHeap 0) (AllocResHeap 0) (Heap 0))
                   (((BatchAllocResHeap   (newBatchHeap Heap) (newAddrRange AddrRange)))
                   ((AllocResHeap   (newHeap Heap) (newAddr Addr)))
                    ((HeapCtor (HeapSize Int)
                               (HeapContents (Array Addr HeapObject))))))
(define-fun nullAddr  () Addr 0)
(define-fun validHeap     ((h Heap) (p Addr)) Bool
  (and (>= (HeapSize h) p) (> p 0)))
(define-fun emptyHeap () Heap (
  HeapCtor 0 (( as const (Array Addr HeapObject)) defObj)))
(define-fun readHeap ((h Heap) (p Addr)) HeapObject
  (ite (validHeap h p)
       (select (HeapContents h) p)
       defObj))
(define-fun writeHeap ((h Heap) (p Addr) (o HeapObject)) Heap
  (ite (validHeap h p)
       (HeapCtor (HeapSize h) (store (HeapContents h) p o))
       h))
(define-fun allocHeap   ((h Heap) (o HeapObject)) AllocResHeap
  (AllocResHeap (HeapCtor (+ 1 (HeapSize h))
                    (store (HeapContents h) (+ 1 (HeapSize h)) o))
          (+ 1 (HeapSize h))))
(define-fun Heap-eq     ((h1 Heap) (h2 Heap)) Bool
  (forall ((p Addr))
          (and (= (validHeap h1 p) (validHeap h2 p))
               (= (readHeap h1 p) (readHeap h2 p)))))
(define-fun nthAddrRange((ar AddrRange) (n Int)) Addr
  (ite (and (>= n 0) (< n (AddrRangeSize ar)))
       (+ (AddrRangeStart ar) n)
       nullAddr))
(define-fun withinHeap ((ar AddrRange ) (p Addr)) Bool
  (and (>= p (AddrRangeStart ar)) (< p (+ (AddrRangeStart ar) (AddrRangeSize ar)))))

(declare-fun batchAllocHeap     (Heap Heap HeapObject Int Int) Bool)
(declare-fun batchAllocPostHeap (Heap Heap HeapObject Int) Bool)

(assert (forall ((h1 Heap) (h2 Heap) (o HeapObject) (n1 Int) (n2 Int))
                (=> (and (> n2 0) (batchAllocHeap h1 h2 o n1 n2))
                   (batchAllocHeap h1 (newHeap (allocHeap h2 o)) o n1 (- n2 1)))))
(assert (forall ((h1 Heap) (h2 Heap) (o HeapObject) (n1 Int) (n2 Int))
                (=> (and (<= n2 0) (batchAllocHeap h1 h2 o n1 n2))
                   (batchAllocPostHeap h1 h2 o n1))))

(declare-fun batchWriteHeap     (Heap Heap Addr Addr HeapObject Int Int) Bool)
(declare-fun batchWritePostHeap (Heap Heap Addr HeapObject Int) Bool)

(assert (forall ((h1 Heap) (h2 Heap) (a1 Addr) (a2 Addr) (o HeapObject) (n1 Int) (n2 Int))
                (=> (and (> n2 0) (batchWriteHeap h1 h2 a1 a2 o n1 n2))
                   (batchWriteHeap h1 (writeHeap h2 a2 o) a1 (+ a2 1) o n1 (- n2 1)))))
(assert (forall ((h1 Heap) (h2 Heap) (a1 Addr) (a2 Addr) (o HeapObject) (n1 Int) (n2 Int))
                (=> (and (<= n2 0) (batchWriteHeap h1 h2 a1 a2 o n1 n2))
                   (batchWritePostHeap h1 h2 a1 o n1))))

;===============================================================================
(declare-fun inv_main12 (Heap Int Int Int Int Addr Addr) Bool)
(declare-fun inv_main15 (Heap Int Int Int Int Addr Addr Int) Bool)
(declare-fun inv_main18 (Heap Int Int Int Int Addr Addr) Bool)
(declare-fun inv_main19 (Heap Int Int Int Int Addr Addr) Bool)
(declare-fun inv_main22 (Heap Int Int Int Int Addr Addr) Bool)
(declare-fun inv_main28 (Heap Int Int Addr Int Int) Bool)
(declare-fun inv_main36 (Heap Int Int Addr Int Int Int Int Int Int Addr) Bool)
(declare-fun inv_main39 (Heap Int Int Addr Int Int Int Int Int Int Addr Int) Bool)
(declare-fun inv_main4 (Heap Int Int) Bool)
(declare-fun inv_main42 (Heap Int Int Addr Int Int Int Int Int Int Addr) Bool)
(declare-fun inv_main43 (Heap Int Int Addr Int Int Int Int Int Int Addr) Bool)
(declare-fun inv_main47 (Heap Int Int Addr Int Int Int Int Int Addr Addr Addr) Bool)
(declare-fun inv_main50 (Heap Int Int Addr Int Int Int Int Int Addr Addr Addr) Bool)
(declare-fun inv_main53 (Heap Int Int Addr Int Int Int Int Int Addr Addr Addr) Bool)
(declare-fun inv_main54 (Heap Int Int Addr Int Int Int Int Int Addr Addr Addr) Bool)
(declare-fun inv_main55 (Heap Int Int Addr Int Int Int Int Int Addr Addr Addr) Bool)
(declare-fun inv_main56 (Heap Int Int Addr Int Int Int Int Int Addr Addr Addr) Bool)
(declare-fun inv_main58 (Heap Int Int Addr Int Int Int Int Int Addr Addr Addr) Bool)
(declare-fun inv_main62 (Heap Int Int Addr Int Int Int Int Int Addr Addr Addr) Bool)
(declare-fun inv_main66 (Heap Int Int Addr Int Int Addr Int) Bool)
(declare-fun inv_main67 (Heap Int Int Addr Int Int Addr Int) Bool)
(declare-fun inv_main68 (Heap Int Int Addr Int Int Addr Int Addr) Bool)
(declare-fun inv_main73 (Heap Int Int Addr Int Int Addr Int) Bool)
(declare-fun inv_main78 (Heap Int Int Addr Int Int Addr Int) Bool)
(declare-fun inv_main8 (Heap Int Int Int Int Addr) Bool)
(declare-fun inv_main80 (Heap Int Int Addr Int Int Addr Int) Bool)
(declare-fun inv_main81 (Heap Int Int Addr Int Int Addr Int Addr) Bool)
(declare-fun inv_main93 (Heap Int Int Addr Int Int Addr Int Addr) Bool)
(declare-fun inv_main96 (Heap Int Int Addr Int Int Addr Int) Bool)
(assert (forall ((var0 Heap)) (or (not (= var0 emptyHeap)) (inv_main4 var0 2 1))))
(assert (forall ((var0 Addr) (var1 Int) (var2 Addr) (var3 Int) (var4 Int) (var5 Addr) (var6 Int) (var7 Int) (var8 Heap)) (or (not (and (and (inv_main81 var8 var7 var6 var5 var4 var3 var2 var1 var0) (= var6 (data (getnode (readHeap var8 var2))))) (is-O_node (readHeap var8 var2)))) (inv_main78 var8 var7 var6 var5 var4 var3 var0 (+ var1 1)))))
(assert (forall ((var0 Addr) (var1 Int) (var2 Addr) (var3 Int) (var4 Int) (var5 Addr) (var6 Int) (var7 Int) (var8 Heap) (var9 Int) (var10 Addr) (var11 Int) (var12 Int) (var13 Addr) (var14 Int) (var15 Int) (var16 Heap)) (or (not (and (and (and (and (and (and (and (and (and (and (inv_main73 var16 var15 var14 var13 var12 var11 var10 var9) (= var0 (next (getnode (readHeap var16 var10))))) (= var1 var9)) (= var2 var10)) (= var3 var11)) (= var4 var12)) (= var5 var13)) (= var6 var14)) (= var7 var15)) (= var8 var16)) (is-O_node (readHeap var16 var10)))) (inv_main78 var8 var7 var6 var5 var4 var3 var0 (+ var1 1)))))
(assert (forall ((var0 Addr) (var1 Addr) (var2 Addr) (var3 Int) (var4 Int) (var5 Int) (var6 Int) (var7 Int) (var8 Addr) (var9 Int) (var10 Int) (var11 Heap)) (or (not (and (and (inv_main53 var11 var10 var9 var8 var7 var6 var5 var4 var3 var2 var1 var0) (is-O_node (readHeap var11 var1))) (is-O_node (readHeap var11 var1)))) (inv_main55 (writeHeap var11 var1 (O_node (node (data (getnode (readHeap var11 var1))) var2 (prev (getnode (readHeap var11 var1)))))) var10 var9 var8 var7 var6 var5 var4 var3 var2 var1 var0))))
(assert (forall ((var0 Int) (var1 Addr) (var2 Int) (var3 Int) (var4 Addr) (var5 Int) (var6 Int) (var7 Heap)) (or (not (and (inv_main80 var7 var6 var5 var4 var3 var2 var1 var0) (is-O_node (readHeap var7 var1)))) (inv_main81 var7 var6 var5 var4 var3 var2 var1 var0 (next (getnode (readHeap var7 var1)))))))
(assert (forall ((var0 Addr) (var1 Int) (var2 Addr) (var3 Int) (var4 Int) (var5 Addr) (var6 Int) (var7 Int) (var8 Heap)) (or (not (and (and (and (inv_main68 var8 var7 var6 var5 var4 var3 var2 var1 var0) (= var6 (data (getnode (readHeap var8 var2))))) (is-O_node (readHeap var8 var2))) (or (= var0 nullAddr) (= (+ var1 1) var3)))) (inv_main66 var8 var7 var6 var5 var4 var3 var0 (+ var1 1)))))
(assert (forall ((var0 Int) (var1 Int) (var2 Addr) (var3 Int) (var4 Int) (var5 Heap)) (or (not (and (inv_main28 var5 var4 var3 var2 var1 var0) (or (= var2 nullAddr) (= 0 var0)))) (inv_main66 var5 var4 var3 var2 var1 var0 var2 0))))
(assert (forall ((var0 Addr) (var1 Int) (var2 Addr) (var3 Int) (var4 Int) (var5 Addr) (var6 Int) (var7 Int) (var8 Heap) (var9 Addr) (var10 Addr) (var11 Int) (var12 Addr) (var13 Int) (var14 Int) (var15 Addr) (var16 Int) (var17 Int) (var18 Heap) (var19 Addr) (var20 Addr) (var21 Int) (var22 Addr) (var23 Int) (var24 Int) (var25 Addr) (var26 Int) (var27 Int) (var28 Heap)) (or (not (and (and (and (and (and (and (and (and (and (and (and (and (and (and (and (and (and (and (and (and (and (and (inv_main93 var28 var27 var26 var25 var24 var23 var22 var21 var20) (= var19 var9)) (= var0 var10)) (= var1 var11)) (= var2 var12)) (= var3 var13)) (= var4 var14)) (= var5 var15)) (= var6 var16)) (= var7 var17)) (= var8 (writeHeap var18 var10 defObj))) (= var9 (next (getnode (readHeap var28 var20))))) (= var10 var20)) (= var11 var21)) (= var12 var22)) (= var13 var23)) (= var14 var24)) (= var15 var25)) (= var16 var26)) (= var17 var27)) (= var18 var28)) (is-O_node (readHeap var28 var20))) (not (= var19 nullAddr)))) (inv_main93 var8 var7 var6 var5 var4 var3 var2 var1 var19))))
(assert (forall ((var0 Int) (var1 Addr) (var2 Int) (var3 Int) (var4 Addr) (var5 Int) (var6 Int) (var7 Heap)) (or (not (and (and (and (inv_main78 var7 var6 var5 var4 var3 var2 var1 var0) (= var1 nullAddr)) (= var0 (+ 1 var6))) (not (= var4 nullAddr)))) (inv_main93 var7 var6 var5 var4 var3 var2 var1 var0 var4))))
(assert (forall ((var0 Int) (var1 Addr) (var2 Int) (var3 Int) (var4 Addr) (var5 Int) (var6 Int) (var7 Heap)) (or (not (and (and (inv_main66 var7 var6 var5 var4 var3 var2 var1 var0) (= var3 (data (getnode (readHeap var7 var1))))) (is-O_node (readHeap var7 var1)))) (inv_main73 var7 var6 var5 var4 var3 var2 var1 var0))))
(assert (forall ((var0 Addr) (var1 Addr) (var2 Addr) (var3 Int) (var4 Int) (var5 Int) (var6 Int) (var7 Int) (var8 Addr) (var9 Int) (var10 Int) (var11 Heap)) (or (not (and (and (inv_main47 var11 var10 var9 var8 var7 var6 var5 var4 var3 var2 var1 var0) (not (<= 0 (+ var3 (* (- 1) 1))))) (not (= var1 nullAddr)))) (inv_main53 var11 var10 var9 var8 var7 var6 var5 var4 var3 var2 var1 var0))))
(assert (forall ((var0 Addr) (var1 Addr) (var2 Int) (var3 Int) (var4 Int) (var5 Int) (var6 Heap)) (or (not (and (and (inv_main12 var6 var5 var4 var3 var2 var1 var0) (is-O_node (readHeap var6 var0))) (is-O_node (readHeap var6 var0)))) (inv_main18 (writeHeap var6 var0 (O_node (node var2 (next (getnode (readHeap var6 var0))) (prev (getnode (readHeap var6 var0)))))) var5 var4 var3 var2 var1 var0))))
(assert (forall ((var0 Int) (var1 Addr) (var2 Addr) (var3 Int) (var4 Int) (var5 Int) (var6 Int) (var7 Heap)) (or (not (inv_main15 var7 var6 var5 var4 var3 var2 var1 var0)) (inv_main15 var7 var6 var5 var4 var3 var2 var1 var0))))
(assert (forall ((var0 Addr) (var1 Int) (var2 Int) (var3 Int) (var4 Int) (var5 node) (var6 Heap) (var7 Addr) (var8 Addr) (var9 Int) (var10 Int) (var11 Int) (var12 Int) (var13 Heap)) (or (not (and (and (and (and (and (and (and (and (and (inv_main8 var13 var12 var11 var10 var9 var8) (<= 0 (+ var10 (* (- 1) 1)))) (= var7 (newAddr (allocHeap var13 (O_node var5))))) (= var0 var8)) (= var1 var9)) (= var2 var10)) (= var3 var11)) (= var4 var12)) (= var6 (newHeap (allocHeap var13 (O_node var5))))) (= nullAddr var7))) (inv_main15 var6 var4 var3 var2 var1 var0 var7 1))))
(assert (forall ((var0 Addr) (var1 Int) (var2 Int) (var3 Int) (var4 Int) (var5 Heap) (var6 Addr) (var7 Addr) (var8 Addr) (var9 Int) (var10 Int) (var11 Int) (var12 Int) (var13 Heap)) (or (not (and (and (and (and (and (and (and (and (and (and (inv_main19 var13 var12 var11 var10 var9 var8 var7) (= var0 var7)) (= var6 var8)) (= var1 var9)) (= var2 var10)) (= var3 var11)) (= var4 var12)) (= var5 (writeHeap var13 var7 (O_node (node (data (getnode (readHeap var13 var7))) (next (getnode (readHeap var13 var7))) nullAddr))))) (is-O_node (readHeap var13 var7))) (is-O_node (readHeap var13 var7))) (not (= var6 nullAddr)))) (inv_main22 var5 var4 var3 var2 var1 var6 var0))))
(assert (forall ((var0 Addr) (var1 Addr) (var2 Addr) (var3 Int) (var4 Int) (var5 Int) (var6 Int) (var7 Int) (var8 Int) (var9 Int) (var10 Heap) (var11 Addr) (var12 Addr) (var13 Addr) (var14 Addr) (var15 Int) (var16 Int) (var17 Int) (var18 Int) (var19 Int) (var20 Addr) (var21 Int) (var22 Int) (var23 Heap)) (or (not (and (and (and (and (and (and (and (and (and (and (and (and (and (and (and (inv_main54 var23 var22 var21 var20 var19 var18 var17 var16 var15 var14 var13 var12) (= var0 var12)) (= var1 var13)) (= var2 var14)) (= var3 var15)) (= var4 var16)) (= var5 var17)) (= var6 var18)) (= var7 var19)) (= var11 var20)) (= var8 var21)) (= var9 var22)) (= var10 (writeHeap var23 var14 (O_node (node (data (getnode (readHeap var23 var14))) var20 (prev (getnode (readHeap var23 var14)))))))) (is-O_node (readHeap var23 var14))) (is-O_node (readHeap var23 var14))) (not (= var11 nullAddr)))) (inv_main62 var10 var9 var8 var11 var7 var6 var5 var4 var3 var2 var1 var0))))
(assert (forall ((var0 Addr) (var1 Addr) (var2 Addr) (var3 Int) (var4 Int) (var5 Int) (var6 Int) (var7 Int) (var8 Addr) (var9 Int) (var10 Int) (var11 Heap)) (or (not (and (and (inv_main55 var11 var10 var9 var8 var7 var6 var5 var4 var3 var2 var1 var0) (is-O_node (readHeap var11 var2))) (is-O_node (readHeap var11 var2)))) (inv_main56 (writeHeap var11 var2 (O_node (node (data (getnode (readHeap var11 var2))) (next (getnode (readHeap var11 var2))) var1))) var10 var9 var8 var7 var6 var5 var4 var3 var2 var1 var0))))
(assert (forall ((var0 Addr) (var1 Addr) (var2 Addr) (var3 Int) (var4 Int) (var5 Int) (var6 Int) (var7 Int) (var8 Addr) (var9 Int) (var10 Int) (var11 Heap)) (or (not (and (inv_main47 var11 var10 var9 var8 var7 var6 var5 var4 var3 var2 var1 var0) (<= 0 (+ var3 (* (- 1) 1))))) (inv_main50 var11 var10 var9 var8 var7 var6 var5 var4 var3 var2 var0 var0))))
(assert (forall ((var0 Addr) (var1 Addr) (var2 Int) (var3 Int) (var4 Int) (var5 Int) (var6 Heap)) (or (not (and (and (inv_main18 var6 var5 var4 var3 var2 var1 var0) (is-O_node (readHeap var6 var0))) (is-O_node (readHeap var6 var0)))) (inv_main19 (writeHeap var6 var0 (O_node (node (data (getnode (readHeap var6 var0))) var1 (prev (getnode (readHeap var6 var0)))))) var5 var4 var3 var2 var1 var0))))
(assert (forall ((var0 Addr) (var1 Addr) (var2 Int) (var3 Int) (var4 Int) (var5 Int) (var6 Int) (var7 Addr) (var8 Int) (var9 Int) (var10 Heap) (var11 Addr) (var12 Addr) (var13 Addr) (var14 Addr) (var15 Int) (var16 Int) (var17 Int) (var18 Int) (var19 Int) (var20 Addr) (var21 Int) (var22 Int) (var23 Heap)) (or (not (and (and (and (and (and (and (and (and (and (and (and (and (and (and (and (inv_main56 var23 var22 var21 var20 var19 var18 var17 var16 var15 var14 var13 var12) (= var11 var12)) (= var0 var13)) (= var1 var14)) (= var2 var15)) (= var3 var16)) (= var4 var17)) (= var5 var18)) (= var6 var19)) (= var7 var20)) (= var8 var21)) (= var9 var22)) (= var10 (writeHeap var23 var14 (O_node (node (data (getnode (readHeap var23 var14))) var12 (prev (getnode (readHeap var23 var14)))))))) (is-O_node (readHeap var23 var14))) (is-O_node (readHeap var23 var14))) (not (= var11 nullAddr)))) (inv_main58 var10 var9 var8 var7 var6 var5 var4 var3 var2 var1 var0 var11))))
(assert (forall ((var0 Int) (var1 Int) (var2 Int) (var3 Int) (var4 Int) (var5 Addr) (var6 Int) (var7 Int) (var8 Heap) (var9 Addr) (var10 Addr) (var11 Addr) (var12 Int) (var13 Int) (var14 Int) (var15 Int) (var16 Int) (var17 Addr) (var18 Int) (var19 Int) (var20 Heap)) (or (not (and (and (and (and (and (and (and (and (and (and (and (inv_main58 var20 var19 var18 var17 var16 var15 var14 var13 var12 var11 var10 var9) (= var0 var12)) (= var1 var13)) (= var2 var14)) (= var3 var15)) (= var4 var16)) (= var5 var17)) (= var6 var18)) (= var7 var19)) (= var8 (writeHeap var20 var9 (O_node (node (data (getnode (readHeap var20 var9))) (next (getnode (readHeap var20 var9))) var11))))) (is-O_node (readHeap var20 var9))) (is-O_node (readHeap var20 var9)))) (inv_main28 var8 var7 var6 var5 var4 var3))))
(assert (forall ((var0 Addr) (var1 Addr) (var2 Int) (var3 Int) (var4 Int) (var5 Int) (var6 Int) (var7 Addr) (var8 Int) (var9 Int) (var10 Heap) (var11 Addr) (var12 Addr) (var13 Addr) (var14 Addr) (var15 Int) (var16 Int) (var17 Int) (var18 Int) (var19 Int) (var20 Addr) (var21 Int) (var22 Int) (var23 Heap)) (or (not (and (and (and (and (and (and (and (and (and (and (and (and (and (and (and (inv_main56 var23 var22 var21 var20 var19 var18 var17 var16 var15 var14 var13 var12) (= var11 var12)) (= var0 var13)) (= var1 var14)) (= var2 var15)) (= var3 var16)) (= var4 var17)) (= var5 var18)) (= var6 var19)) (= var7 var20)) (= var8 var21)) (= var9 var22)) (= var10 (writeHeap var23 var14 (O_node (node (data (getnode (readHeap var23 var14))) var12 (prev (getnode (readHeap var23 var14)))))))) (is-O_node (readHeap var23 var14))) (is-O_node (readHeap var23 var14))) (= var11 nullAddr))) (inv_main28 var10 var9 var8 var7 var6 var5))))
(assert (forall ((var0 Addr) (var1 Addr) (var2 Addr) (var3 Int) (var4 Int) (var5 Int) (var6 Int) (var7 Int) (var8 Addr) (var9 Int) (var10 Int) (var11 Heap) (var12 Addr) (var13 Addr) (var14 Addr) (var15 Int) (var16 Int) (var17 Int) (var18 Int) (var19 Int) (var20 Addr) (var21 Int) (var22 Int) (var23 Heap)) (or (not (and (and (and (and (and (and (and (and (and (and (and (and (and (and (inv_main62 var23 var22 var21 var20 var19 var18 var17 var16 var15 var14 var13 var12) (= var0 var12)) (= var1 var13)) (= var2 var14)) (= var3 var15)) (= var4 var16)) (= var5 var17)) (= var6 var18)) (= var7 var19)) (= var8 var20)) (= var9 var21)) (= var10 var22)) (= var11 (writeHeap var23 var20 (O_node (node (data (getnode (readHeap var23 var20))) (next (getnode (readHeap var23 var20))) var14))))) (is-O_node (readHeap var23 var20))) (is-O_node (readHeap var23 var20)))) (inv_main28 var11 var10 var9 var2 var7 var6))))
(assert (forall ((var0 Addr) (var1 Addr) (var2 Addr) (var3 Int) (var4 Int) (var5 Int) (var6 Int) (var7 Int) (var8 Int) (var9 Int) (var10 Heap) (var11 Addr) (var12 Addr) (var13 Addr) (var14 Addr) (var15 Int) (var16 Int) (var17 Int) (var18 Int) (var19 Int) (var20 Addr) (var21 Int) (var22 Int) (var23 Heap)) (or (not (and (and (and (and (and (and (and (and (and (and (and (and (and (and (and (inv_main54 var23 var22 var21 var20 var19 var18 var17 var16 var15 var14 var13 var12) (= var0 var12)) (= var1 var13)) (= var2 var14)) (= var3 var15)) (= var4 var16)) (= var5 var17)) (= var6 var18)) (= var7 var19)) (= var11 var20)) (= var8 var21)) (= var9 var22)) (= var10 (writeHeap var23 var14 (O_node (node (data (getnode (readHeap var23 var14))) var20 (prev (getnode (readHeap var23 var14)))))))) (is-O_node (readHeap var23 var14))) (is-O_node (readHeap var23 var14))) (= var11 nullAddr))) (inv_main28 var10 var9 var8 var2 var7 var6))))
(assert (forall ((var0 Addr) (var1 Int) (var2 Int) (var3 Int) (var4 Int) (var5 node) (var6 Heap) (var7 Addr) (var8 Addr) (var9 Int) (var10 Int) (var11 Int) (var12 Int) (var13 Heap)) (or (not (and (and (and (and (and (and (and (and (and (inv_main8 var13 var12 var11 var10 var9 var8) (<= 0 (+ var10 (* (- 1) 1)))) (= var7 (newAddr (allocHeap var13 (O_node var5))))) (= var0 var8)) (= var1 var9)) (= var2 var10)) (= var3 var11)) (= var4 var12)) (= var6 (newHeap (allocHeap var13 (O_node var5))))) (not (= nullAddr var7)))) (inv_main12 var6 var4 var3 var2 var1 var0 var7))))
(assert (forall ((var0 Addr) (var1 Addr) (var2 Addr) (var3 Int) (var4 Int) (var5 Int) (var6 Int) (var7 Int) (var8 Addr) (var9 Int) (var10 Int) (var11 Heap)) (or (not (and (and (inv_main47 var11 var10 var9 var8 var7 var6 var5 var4 var3 var2 var1 var0) (not (<= 0 (+ var3 (* (- 1) 1))))) (= var1 nullAddr))) (inv_main54 var11 var10 var9 var8 var7 var6 var5 var4 var3 var2 var1 var0))))
(assert (forall ((var0 Addr) (var1 Int) (var2 Int) (var3 Int) (var4 Int) (var5 Int) (var6 Int) (var7 Addr) (var8 Int) (var9 Int) (var10 Heap)) (or (not (and (and (inv_main36 var10 var9 var8 var7 var6 var5 var4 var3 var2 var1 var0) (is-O_node (readHeap var10 var0))) (is-O_node (readHeap var10 var0)))) (inv_main42 (writeHeap var10 var0 (O_node (node (data (getnode (readHeap var10 var0))) nullAddr (prev (getnode (readHeap var10 var0)))))) var9 var8 var7 var6 var5 var4 var3 var2 var1 var0))))
(assert (forall ((var0 Addr) (var1 Addr) (var2 Int) (var3 Int) (var4 Int) (var5 Int) (var6 Heap) (var7 Addr) (var8 Addr) (var9 Int) (var10 Int) (var11 Int) (var12 Int) (var13 Heap)) (or (not (and (and (and (and (and (and (and (and (and (inv_main22 var13 var12 var11 var10 var9 var8 var7) (= var0 var7)) (= var1 var8)) (= var2 var9)) (= var3 var10)) (= var4 var11)) (= var5 var12)) (= var6 (writeHeap var13 var8 (O_node (node (data (getnode (readHeap var13 var8))) (next (getnode (readHeap var13 var8))) var7))))) (is-O_node (readHeap var13 var8))) (is-O_node (readHeap var13 var8)))) (inv_main8 var6 var5 var4 (+ var3 (* (- 1) 1)) var2 var0))))
(assert (forall ((var0 Addr) (var1 Int) (var2 Int) (var3 Int) (var4 Int) (var5 Heap) (var6 Addr) (var7 Addr) (var8 Addr) (var9 Int) (var10 Int) (var11 Int) (var12 Int) (var13 Heap)) (or (not (and (and (and (and (and (and (and (and (and (and (inv_main19 var13 var12 var11 var10 var9 var8 var7) (= var0 var7)) (= var6 var8)) (= var1 var9)) (= var2 var10)) (= var3 var11)) (= var4 var12)) (= var5 (writeHeap var13 var7 (O_node (node (data (getnode (readHeap var13 var7))) (next (getnode (readHeap var13 var7))) nullAddr))))) (is-O_node (readHeap var13 var7))) (is-O_node (readHeap var13 var7))) (= var6 nullAddr))) (inv_main8 var5 var4 var3 (+ var2 (* (- 1) 1)) var1 var0))))
(assert (forall ((var0 Int) (var1 Int) (var2 Heap)) (or (not (inv_main4 var2 var1 var0)) (inv_main8 var2 var1 var0 var1 var0 nullAddr))))
(assert (forall ((var0 Addr) (var1 Int) (var2 Int) (var3 Int) (var4 Int) (var5 Int) (var6 Int) (var7 Addr) (var8 Int) (var9 Int) (var10 Heap)) (or (not (and (and (inv_main42 var10 var9 var8 var7 var6 var5 var4 var3 var2 var1 var0) (is-O_node (readHeap var10 var0))) (is-O_node (readHeap var10 var0)))) (inv_main43 (writeHeap var10 var0 (O_node (node (data (getnode (readHeap var10 var0))) (next (getnode (readHeap var10 var0))) nullAddr))) var9 var8 var7 var6 var5 var4 var3 var2 var1 var0))))
(assert (forall ((var0 Addr) (var1 Int) (var2 Addr) (var3 Int) (var4 Int) (var5 Addr) (var6 Int) (var7 Int) (var8 Heap)) (or (not (and (and (inv_main68 var8 var7 var6 var5 var4 var3 var2 var1 var0) (not (= var6 (data (getnode (readHeap var8 var2)))))) (is-O_node (readHeap var8 var2)))) (inv_main96 var8 var7 var6 var5 var4 var3 var2 var1))))
(assert (forall ((var0 Addr) (var1 Int) (var2 Addr) (var3 Int) (var4 Int) (var5 Addr) (var6 Int) (var7 Int) (var8 Heap)) (or (not (and (and (inv_main81 var8 var7 var6 var5 var4 var3 var2 var1 var0) (not (= var6 (data (getnode (readHeap var8 var2)))))) (is-O_node (readHeap var8 var2)))) (inv_main96 var8 var7 var6 var5 var4 var3 var2 var1))))
(assert (forall ((var0 Int) (var1 Addr) (var2 Int) (var3 Int) (var4 Addr) (var5 Int) (var6 Int) (var7 Heap)) (or (not (and (and (inv_main66 var7 var6 var5 var4 var3 var2 var1 var0) (not (= var3 (data (getnode (readHeap var7 var1)))))) (is-O_node (readHeap var7 var1)))) (inv_main96 var7 var6 var5 var4 var3 var2 var1 var0))))
(assert (forall ((var0 Int) (var1 Addr) (var2 Int) (var3 Int) (var4 Addr) (var5 Int) (var6 Int) (var7 Heap)) (or (not (and (and (inv_main78 var7 var6 var5 var4 var3 var2 var1 var0) (= var1 nullAddr)) (not (= var0 (+ 1 var6))))) (inv_main96 var7 var6 var5 var4 var3 var2 var1 var0))))
(assert (forall ((var0 Int) (var1 Int) (var2 Int) (var3 Int) (var4 Int) (var5 Int) (var6 Int) (var7 Int) (var8 Addr) (var9 Addr) (var10 Int) (var11 Int) (var12 Int) (var13 Int) (var14 node) (var15 Heap) (var16 Heap) (var17 Addr) (var18 Addr) (var19 Int) (var20 Int) (var21 Int) (var22 Int) (var23 Heap) (var24 Int)) (or (not (and (and (and (and (and (and (and (and (and (and (and (and (and (and (and (and (and (and (and (and (and (and (and (inv_main8 var23 var22 var21 var20 var19 var18) (not (<= 0 (+ var20 (* (- 1) 1))))) (= var4 var24)) (or (not (<= 0 (+ (* (- 1) (+ var22 (* (- 2) var24))) (* (- 1) 1)))) (<= 0 (+ (* (- 1) var22) (* (- 1) 1))))) (or (not (<= 0 (+ (+ (* (- 2) var24) var22) (* (- 1) 1)))) (<= 0 (+ var22 (* (- 1) 1))))) (<= 0 (+ (+ (* 1 (+ var22 (* (- 2) var24))) 2) (* (- 1) 1)))) (<= 0 (+ (+ (* (- 1) (+ var22 (* (- 2) var24))) 2) (* (- 1) 1)))) (= var6 5)) (= var8 var18)) (= var10 var21)) (= var12 var22)) (= var15 var23)) (= var17 (newAddr (allocHeap var15 (O_node var14))))) (= var0 var6)) (= var1 var4)) (= var2 var6)) (= var3 3)) (= var5 var4)) (= var7 var6)) (= var9 var8)) (= var11 var10)) (= var13 var12)) (= var16 (newHeap (allocHeap var15 (O_node var14))))) (not (= nullAddr var17)))) (inv_main36 var16 var13 var11 var9 var7 var5 var3 var2 var1 var0 var17))))
(assert (forall ((var0 Int) (var1 Addr) (var2 Int) (var3 Int) (var4 Addr) (var5 Int) (var6 Int) (var7 Heap)) (or (not (and (inv_main78 var7 var6 var5 var4 var3 var2 var1 var0) (not (= var1 nullAddr)))) (inv_main80 var7 var6 var5 var4 var3 var2 var1 var0))))
(assert (forall ((var0 Addr) (var1 Addr) (var2 Addr) (var3 Addr) (var4 Int) (var5 Int) (var6 Int) (var7 Int) (var8 Int) (var9 Addr) (var10 Int) (var11 Int) (var12 Heap) (var13 Addr) (var14 Addr) (var15 Addr) (var16 Int) (var17 Int) (var18 Int) (var19 Int) (var20 Int) (var21 Addr) (var22 Int) (var23 Int) (var24 Heap)) (or (not (and (and (and (and (and (and (and (and (and (and (and (and (and (and (inv_main50 var24 var23 var22 var21 var20 var19 var18 var17 var16 var15 var14 var13) (= var0 (next (getnode (readHeap var24 var13))))) (= var1 var13)) (= var2 var14)) (= var3 var15)) (= var4 var16)) (= var5 var17)) (= var6 var18)) (= var7 var19)) (= var8 var20)) (= var9 var21)) (= var10 var22)) (= var11 var23)) (= var12 var24)) (is-O_node (readHeap var24 var13)))) (inv_main47 var12 var11 var10 var9 var8 var7 var6 var5 (+ var4 (* (- 1) 1)) var3 var2 var0))))
(assert (forall ((var0 Int) (var1 Addr) (var2 Addr) (var3 Addr) (var4 Int) (var5 Int) (var6 Int) (var7 Int) (var8 Int) (var9 Int) (var10 Int) (var11 Int) (var12 Int) (var13 Int) (var14 Addr) (var15 Addr) (var16 Int) (var17 Int) (var18 Int) (var19 Int) (var20 Heap) (var21 Heap) (var22 Addr) (var23 Int) (var24 Int) (var25 Int) (var26 Int) (var27 Int) (var28 Int) (var29 Addr) (var30 Int) (var31 Int) (var32 Heap)) (or (not (and (and (and (and (and (and (and (and (and (and (and (and (and (and (and (and (and (and (and (and (and (and (and (and (inv_main43 var32 var31 var30 var29 var28 var27 var26 var25 var24 var23 var22) (= var2 var22)) (= var0 var23)) (= var4 var24)) (= var6 var25)) (= var8 var26)) (= var10 var27)) (= var12 var28)) (= var14 var29)) (= var16 var30)) (= var18 var31)) (= var20 (writeHeap var32 var22 (O_node (node var23 (next (getnode (readHeap var32 var22))) (prev (getnode (readHeap var32 var22)))))))) (is-O_node (readHeap var32 var22))) (is-O_node (readHeap var32 var22))) (= var1 nullAddr)) (= var3 var2)) (= var5 var4)) (= var7 var6)) (= var9 var8)) (= var11 var10)) (= var13 var12)) (= var15 var14)) (= var17 var16)) (= var19 var18)) (= var21 var20))) (inv_main47 var21 var19 var17 var15 var13 var11 var9 var7 var5 var3 var1 var15))))
(assert (forall ((var0 Int) (var1 Addr) (var2 Int) (var3 Int) (var4 Int) (var5 Int) (var6 Int) (var7 Int) (var8 Addr) (var9 Int) (var10 Int) (var11 Heap)) (or (not (inv_main39 var11 var10 var9 var8 var7 var6 var5 var4 var3 var2 var1 var0)) (inv_main39 var11 var10 var9 var8 var7 var6 var5 var4 var3 var2 var1 var0))))
(assert (forall ((var0 Int) (var1 Int) (var2 Int) (var3 Int) (var4 Int) (var5 Int) (var6 Int) (var7 Int) (var8 Addr) (var9 Addr) (var10 Int) (var11 Int) (var12 Int) (var13 Int) (var14 node) (var15 Heap) (var16 Heap) (var17 Addr) (var18 Addr) (var19 Int) (var20 Int) (var21 Int) (var22 Int) (var23 Heap) (var24 Int)) (or (not (and (and (and (and (and (and (and (and (and (and (and (and (and (and (and (and (and (and (and (and (and (and (and (inv_main8 var23 var22 var21 var20 var19 var18) (not (<= 0 (+ var20 (* (- 1) 1))))) (= var4 var24)) (or (not (<= 0 (+ (* (- 1) (+ var22 (* (- 2) var24))) (* (- 1) 1)))) (<= 0 (+ (* (- 1) var22) (* (- 1) 1))))) (or (not (<= 0 (+ (+ (* (- 2) var24) var22) (* (- 1) 1)))) (<= 0 (+ var22 (* (- 1) 1))))) (<= 0 (+ (+ (* 1 (+ var22 (* (- 2) var24))) 2) (* (- 1) 1)))) (<= 0 (+ (+ (* (- 1) (+ var22 (* (- 2) var24))) 2) (* (- 1) 1)))) (= var6 5)) (= var8 var18)) (= var10 var21)) (= var12 var22)) (= var15 var23)) (= var17 (newAddr (allocHeap var15 (O_node var14))))) (= var0 var6)) (= var1 var4)) (= var2 var6)) (= var3 3)) (= var5 var4)) (= var7 var6)) (= var9 var8)) (= var11 var10)) (= var13 var12)) (= var16 (newHeap (allocHeap var15 (O_node var14))))) (= nullAddr var17))) (inv_main39 var16 var13 var11 var9 var7 var5 var3 var2 var1 var0 var17 1))))
(assert (forall ((var0 Addr) (var1 Int) (var2 Addr) (var3 Int) (var4 Int) (var5 Addr) (var6 Int) (var7 Int) (var8 Heap)) (or (not (and (and (and (and (inv_main68 var8 var7 var6 var5 var4 var3 var2 var1 var0) (= var6 (data (getnode (readHeap var8 var2))))) (is-O_node (readHeap var8 var2))) (not (= (+ var1 1) var3))) (not (= var0 nullAddr)))) (inv_main67 var8 var7 var6 var5 var4 var3 var0 (+ var1 1)))))
(assert (forall ((var0 Int) (var1 Int) (var2 Addr) (var3 Int) (var4 Int) (var5 Heap)) (or (not (and (and (inv_main28 var5 var4 var3 var2 var1 var0) (not (= 0 var0))) (not (= var2 nullAddr)))) (inv_main67 var5 var4 var3 var2 var1 var0 var2 0))))
(assert (forall ((var0 Int) (var1 Addr) (var2 Int) (var3 Int) (var4 Addr) (var5 Int) (var6 Int) (var7 Heap)) (or (not (and (inv_main67 var7 var6 var5 var4 var3 var2 var1 var0) (is-O_node (readHeap var7 var1)))) (inv_main68 var7 var6 var5 var4 var3 var2 var1 var0 (next (getnode (readHeap var7 var1)))))))
(assert (forall ((var0 Addr) (var1 Addr) (var2 Int) (var3 Int) (var4 Int) (var5 Int) (var6 Heap)) (not (and (inv_main12 var6 var5 var4 var3 var2 var1 var0) (not (is-O_node (readHeap var6 var0)))))))
(assert (forall ((var0 Addr) (var1 Addr) (var2 Int) (var3 Int) (var4 Int) (var5 Int) (var6 Heap)) (not (and (and (inv_main12 var6 var5 var4 var3 var2 var1 var0) (not (is-O_node (readHeap var6 var0)))) (is-O_node (readHeap var6 var0))))))
(assert (forall ((var0 Addr) (var1 Addr) (var2 Int) (var3 Int) (var4 Int) (var5 Int) (var6 Heap)) (not (and (inv_main18 var6 var5 var4 var3 var2 var1 var0) (not (is-O_node (readHeap var6 var0)))))))
(assert (forall ((var0 Addr) (var1 Addr) (var2 Int) (var3 Int) (var4 Int) (var5 Int) (var6 Heap)) (not (and (and (inv_main18 var6 var5 var4 var3 var2 var1 var0) (not (is-O_node (readHeap var6 var0)))) (is-O_node (readHeap var6 var0))))))
(assert (forall ((var0 Addr) (var1 Addr) (var2 Int) (var3 Int) (var4 Int) (var5 Int) (var6 Heap)) (not (and (inv_main19 var6 var5 var4 var3 var2 var1 var0) (not (is-O_node (readHeap var6 var0)))))))
(assert (forall ((var0 Addr) (var1 Addr) (var2 Int) (var3 Int) (var4 Int) (var5 Int) (var6 Heap)) (not (and (and (inv_main19 var6 var5 var4 var3 var2 var1 var0) (not (is-O_node (readHeap var6 var0)))) (is-O_node (readHeap var6 var0))))))
(assert (forall ((var0 Addr) (var1 Addr) (var2 Int) (var3 Int) (var4 Int) (var5 Int) (var6 Heap)) (not (and (inv_main22 var6 var5 var4 var3 var2 var1 var0) (not (is-O_node (readHeap var6 var1)))))))
(assert (forall ((var0 Addr) (var1 Addr) (var2 Int) (var3 Int) (var4 Int) (var5 Int) (var6 Heap)) (not (and (and (inv_main22 var6 var5 var4 var3 var2 var1 var0) (not (is-O_node (readHeap var6 var1)))) (is-O_node (readHeap var6 var1))))))
(assert (forall ((var0 Addr) (var1 Int) (var2 Int) (var3 Int) (var4 Int) (var5 Int) (var6 Int) (var7 Addr) (var8 Int) (var9 Int) (var10 Heap)) (not (and (inv_main36 var10 var9 var8 var7 var6 var5 var4 var3 var2 var1 var0) (not (is-O_node (readHeap var10 var0)))))))
(assert (forall ((var0 Addr) (var1 Int) (var2 Int) (var3 Int) (var4 Int) (var5 Int) (var6 Int) (var7 Addr) (var8 Int) (var9 Int) (var10 Heap)) (not (and (and (inv_main36 var10 var9 var8 var7 var6 var5 var4 var3 var2 var1 var0) (not (is-O_node (readHeap var10 var0)))) (is-O_node (readHeap var10 var0))))))
(assert (forall ((var0 Addr) (var1 Int) (var2 Int) (var3 Int) (var4 Int) (var5 Int) (var6 Int) (var7 Addr) (var8 Int) (var9 Int) (var10 Heap)) (not (and (inv_main42 var10 var9 var8 var7 var6 var5 var4 var3 var2 var1 var0) (not (is-O_node (readHeap var10 var0)))))))
(assert (forall ((var0 Addr) (var1 Int) (var2 Int) (var3 Int) (var4 Int) (var5 Int) (var6 Int) (var7 Addr) (var8 Int) (var9 Int) (var10 Heap)) (not (and (and (inv_main42 var10 var9 var8 var7 var6 var5 var4 var3 var2 var1 var0) (not (is-O_node (readHeap var10 var0)))) (is-O_node (readHeap var10 var0))))))
(assert (forall ((var0 Addr) (var1 Int) (var2 Int) (var3 Int) (var4 Int) (var5 Int) (var6 Int) (var7 Addr) (var8 Int) (var9 Int) (var10 Heap)) (not (and (inv_main43 var10 var9 var8 var7 var6 var5 var4 var3 var2 var1 var0) (not (is-O_node (readHeap var10 var0)))))))
(assert (forall ((var0 Addr) (var1 Int) (var2 Int) (var3 Int) (var4 Int) (var5 Int) (var6 Int) (var7 Addr) (var8 Int) (var9 Int) (var10 Heap)) (not (and (and (inv_main43 var10 var9 var8 var7 var6 var5 var4 var3 var2 var1 var0) (not (is-O_node (readHeap var10 var0)))) (is-O_node (readHeap var10 var0))))))
(assert (forall ((var0 Addr) (var1 Addr) (var2 Addr) (var3 Int) (var4 Int) (var5 Int) (var6 Int) (var7 Int) (var8 Addr) (var9 Int) (var10 Int) (var11 Heap)) (not (and (inv_main50 var11 var10 var9 var8 var7 var6 var5 var4 var3 var2 var1 var0) (not (is-O_node (readHeap var11 var0)))))))
(assert (forall ((var0 Addr) (var1 Addr) (var2 Addr) (var3 Int) (var4 Int) (var5 Int) (var6 Int) (var7 Int) (var8 Addr) (var9 Int) (var10 Int) (var11 Heap)) (not (and (inv_main53 var11 var10 var9 var8 var7 var6 var5 var4 var3 var2 var1 var0) (not (is-O_node (readHeap var11 var1)))))))
(assert (forall ((var0 Addr) (var1 Addr) (var2 Addr) (var3 Int) (var4 Int) (var5 Int) (var6 Int) (var7 Int) (var8 Addr) (var9 Int) (var10 Int) (var11 Heap)) (not (and (and (inv_main53 var11 var10 var9 var8 var7 var6 var5 var4 var3 var2 var1 var0) (not (is-O_node (readHeap var11 var1)))) (is-O_node (readHeap var11 var1))))))
(assert (forall ((var0 Addr) (var1 Addr) (var2 Addr) (var3 Int) (var4 Int) (var5 Int) (var6 Int) (var7 Int) (var8 Addr) (var9 Int) (var10 Int) (var11 Heap)) (not (and (inv_main55 var11 var10 var9 var8 var7 var6 var5 var4 var3 var2 var1 var0) (not (is-O_node (readHeap var11 var2)))))))
(assert (forall ((var0 Addr) (var1 Addr) (var2 Addr) (var3 Int) (var4 Int) (var5 Int) (var6 Int) (var7 Int) (var8 Addr) (var9 Int) (var10 Int) (var11 Heap)) (not (and (and (inv_main55 var11 var10 var9 var8 var7 var6 var5 var4 var3 var2 var1 var0) (not (is-O_node (readHeap var11 var2)))) (is-O_node (readHeap var11 var2))))))
(assert (forall ((var0 Addr) (var1 Addr) (var2 Addr) (var3 Int) (var4 Int) (var5 Int) (var6 Int) (var7 Int) (var8 Addr) (var9 Int) (var10 Int) (var11 Heap)) (not (and (inv_main56 var11 var10 var9 var8 var7 var6 var5 var4 var3 var2 var1 var0) (not (is-O_node (readHeap var11 var2)))))))
(assert (forall ((var0 Addr) (var1 Addr) (var2 Addr) (var3 Int) (var4 Int) (var5 Int) (var6 Int) (var7 Int) (var8 Addr) (var9 Int) (var10 Int) (var11 Heap)) (not (and (and (inv_main56 var11 var10 var9 var8 var7 var6 var5 var4 var3 var2 var1 var0) (not (is-O_node (readHeap var11 var2)))) (is-O_node (readHeap var11 var2))))))
(assert (forall ((var0 Addr) (var1 Addr) (var2 Addr) (var3 Int) (var4 Int) (var5 Int) (var6 Int) (var7 Int) (var8 Addr) (var9 Int) (var10 Int) (var11 Heap)) (not (and (inv_main58 var11 var10 var9 var8 var7 var6 var5 var4 var3 var2 var1 var0) (not (is-O_node (readHeap var11 var0)))))))
(assert (forall ((var0 Addr) (var1 Addr) (var2 Addr) (var3 Int) (var4 Int) (var5 Int) (var6 Int) (var7 Int) (var8 Addr) (var9 Int) (var10 Int) (var11 Heap)) (not (and (and (inv_main58 var11 var10 var9 var8 var7 var6 var5 var4 var3 var2 var1 var0) (not (is-O_node (readHeap var11 var0)))) (is-O_node (readHeap var11 var0))))))
(assert (forall ((var0 Addr) (var1 Addr) (var2 Addr) (var3 Int) (var4 Int) (var5 Int) (var6 Int) (var7 Int) (var8 Addr) (var9 Int) (var10 Int) (var11 Heap)) (not (and (inv_main54 var11 var10 var9 var8 var7 var6 var5 var4 var3 var2 var1 var0) (not (is-O_node (readHeap var11 var2)))))))
(assert (forall ((var0 Addr) (var1 Addr) (var2 Addr) (var3 Int) (var4 Int) (var5 Int) (var6 Int) (var7 Int) (var8 Addr) (var9 Int) (var10 Int) (var11 Heap)) (not (and (and (inv_main54 var11 var10 var9 var8 var7 var6 var5 var4 var3 var2 var1 var0) (not (is-O_node (readHeap var11 var2)))) (is-O_node (readHeap var11 var2))))))
(assert (forall ((var0 Addr) (var1 Addr) (var2 Addr) (var3 Int) (var4 Int) (var5 Int) (var6 Int) (var7 Int) (var8 Addr) (var9 Int) (var10 Int) (var11 Heap)) (not (and (inv_main62 var11 var10 var9 var8 var7 var6 var5 var4 var3 var2 var1 var0) (not (is-O_node (readHeap var11 var8)))))))
(assert (forall ((var0 Addr) (var1 Addr) (var2 Addr) (var3 Int) (var4 Int) (var5 Int) (var6 Int) (var7 Int) (var8 Addr) (var9 Int) (var10 Int) (var11 Heap)) (not (and (and (inv_main62 var11 var10 var9 var8 var7 var6 var5 var4 var3 var2 var1 var0) (not (is-O_node (readHeap var11 var8)))) (is-O_node (readHeap var11 var8))))))
(assert (forall ((var0 Int) (var1 Addr) (var2 Int) (var3 Int) (var4 Addr) (var5 Int) (var6 Int) (var7 Heap)) (not (and (inv_main67 var7 var6 var5 var4 var3 var2 var1 var0) (not (is-O_node (readHeap var7 var1)))))))
(assert (forall ((var0 Addr) (var1 Int) (var2 Addr) (var3 Int) (var4 Int) (var5 Addr) (var6 Int) (var7 Int) (var8 Heap)) (not (and (inv_main68 var8 var7 var6 var5 var4 var3 var2 var1 var0) (not (is-O_node (readHeap var8 var2)))))))
(assert (forall ((var0 Int) (var1 Addr) (var2 Int) (var3 Int) (var4 Addr) (var5 Int) (var6 Int) (var7 Heap)) (not (and (inv_main66 var7 var6 var5 var4 var3 var2 var1 var0) (not (is-O_node (readHeap var7 var1)))))))
(assert (forall ((var0 Int) (var1 Addr) (var2 Int) (var3 Int) (var4 Addr) (var5 Int) (var6 Int) (var7 Heap)) (not (and (inv_main73 var7 var6 var5 var4 var3 var2 var1 var0) (not (is-O_node (readHeap var7 var1)))))))
(assert (forall ((var0 Int) (var1 Addr) (var2 Int) (var3 Int) (var4 Addr) (var5 Int) (var6 Int) (var7 Heap)) (not (and (inv_main80 var7 var6 var5 var4 var3 var2 var1 var0) (not (is-O_node (readHeap var7 var1)))))))
(assert (forall ((var0 Addr) (var1 Int) (var2 Addr) (var3 Int) (var4 Int) (var5 Addr) (var6 Int) (var7 Int) (var8 Heap)) (not (and (inv_main81 var8 var7 var6 var5 var4 var3 var2 var1 var0) (not (is-O_node (readHeap var8 var2)))))))
(assert (forall ((var0 Addr) (var1 Int) (var2 Addr) (var3 Int) (var4 Int) (var5 Addr) (var6 Int) (var7 Int) (var8 Heap)) (not (and (inv_main93 var8 var7 var6 var5 var4 var3 var2 var1 var0) (not (is-O_node (readHeap var8 var0)))))))
(assert (forall ((var0 Int) (var1 Addr) (var2 Int) (var3 Int) (var4 Addr) (var5 Int) (var6 Int) (var7 Heap)) (not (inv_main96 var7 var6 var5 var4 var3 var2 var1 var0))))
(check-sat)
